  12  12   0  16
  0.5109922E+03  0.3000000E-08  0.1597020E-08  0.1477860E-08  0.5000000E-15
  1.000000000000000E-004
  CAR 
 Zn_battery                              
      3.48778107    -30.52409278  301     -5.91862779      1.00000000
    -30.524  0.0000E+00  0.0000E+00
    -30.411  0.0000E+00  0.0000E+00
    -30.297  0.0000E+00  0.0000E+00
    -30.184  0.0000E+00  0.0000E+00
    -30.071  0.0000E+00  0.0000E+00
    -29.957  0.0000E+00  0.0000E+00
    -29.844  0.0000E+00  0.0000E+00
    -29.730  0.0000E+00  0.0000E+00
    -29.617  0.0000E+00  0.0000E+00
    -29.504  0.9323E-15  0.1057E-15
    -29.390  0.4880E-10  0.5532E-11
    -29.277  0.2089E-06  0.2369E-07
    -29.164  0.7653E-04  0.8700E-05
    -29.050  0.2636E-02  0.3076E-03
    -28.937  0.9990E-02  0.1440E-02
    -28.823  0.4684E-02  0.1971E-02
    -28.710  0.2526E-03  0.2000E-02
    -28.597  0.1330E-05  0.2000E-02
    -28.483  0.6110E-09  0.2000E-02
    -28.370  0.2317E-13  0.2000E-02
    -28.257  0.0000E+00  0.2000E-02
    -28.143  0.0000E+00  0.2000E-02
    -28.030  0.0000E+00  0.2000E-02
    -27.917  0.0000E+00  0.2000E-02
    -27.803  0.0000E+00  0.2000E-02
    -27.690  0.0000E+00  0.2000E-02
    -27.576  0.0000E+00  0.2000E-02
    -27.463  0.9793E-18  0.2000E-02
    -27.350  0.1210E-12  0.2000E-02
    -27.236  0.2207E-08  0.2000E-02
    -27.123  0.3342E-05  0.2000E-02
    -27.010  0.4471E-03  0.2051E-02
    -26.896  0.5972E-02  0.2728E-02
    -26.783  0.9373E-02  0.3791E-02
    -26.669  0.1808E-02  0.3996E-02
    -26.556  0.3740E-04  0.4000E-02
    -26.443  0.7145E-07  0.4000E-02
    -26.329  0.1158E-10  0.4000E-02
    -26.216  0.1528E-15  0.4000E-02
    -26.103  0.0000E+00  0.4000E-02
    -25.989  0.0000E+00  0.4000E-02
    -25.876  0.0000E+00  0.4000E-02
    -25.762  0.0000E+00  0.4000E-02
    -25.649  0.0000E+00  0.4000E-02
    -25.536  0.0000E+00  0.4000E-02
    -25.422  0.0000E+00  0.4000E-02
    -25.309  0.0000E+00  0.4000E-02
    -25.196  0.0000E+00  0.4000E-02
    -25.082  0.0000E+00  0.4000E-02
    -24.969  0.0000E+00  0.4000E-02
    -24.855  0.0000E+00  0.4000E-02
    -24.742  0.0000E+00  0.4000E-02
    -24.629  0.0000E+00  0.4000E-02
    -24.515  0.0000E+00  0.4000E-02
    -24.402  0.0000E+00  0.4000E-02
    -24.289  0.0000E+00  0.4000E-02
    -24.175  0.0000E+00  0.4000E-02
    -24.062  0.0000E+00  0.4000E-02
    -23.948  0.0000E+00  0.4000E-02
    -23.835  0.0000E+00  0.4000E-02
    -23.722  0.0000E+00  0.4000E-02
    -23.608  0.0000E+00  0.4000E-02
    -23.495  0.0000E+00  0.4000E-02
    -23.382  0.0000E+00  0.4000E-02
    -23.268  0.0000E+00  0.4000E-02
    -23.155  0.0000E+00  0.4000E-02
    -23.041  0.0000E+00  0.4000E-02
    -22.928  0.0000E+00  0.4000E-02
    -22.815  0.0000E+00  0.4000E-02
    -22.701  0.0000E+00  0.4000E-02
    -22.588  0.0000E+00  0.4000E-02
    -22.475  0.0000E+00  0.4000E-02
    -22.361  0.0000E+00  0.4000E-02
    -22.248  0.0000E+00  0.4000E-02
    -22.134  0.0000E+00  0.4000E-02
    -22.021  0.0000E+00  0.4000E-02
    -21.908  0.0000E+00  0.4000E-02
    -21.794  0.2938E-17  0.4000E-02
    -21.681  0.4624E-12  0.4000E-02
    -21.568  0.6200E-08  0.4000E-02
    -21.454  0.6938E-05  0.4001E-02
    -21.341  0.6938E-03  0.4079E-02
    -21.228  0.7064E-02  0.4880E-02
    -21.114  0.8586E-02  0.5854E-02
    -21.001  0.1271E-02  0.5998E-02
    -20.887  0.1975E-04  0.6000E-02
    -20.774  0.2796E-07  0.6000E-02
    -20.661  0.3335E-11  0.6000E-02
    -20.547  0.3134E-16  0.6000E-02
    -20.434  0.0000E+00  0.6000E-02
    -20.321  0.0000E+00  0.6000E-02
    -20.207  0.0000E+00  0.6000E-02
    -20.094  0.0000E+00  0.6000E-02
    -19.980  0.0000E+00  0.6000E-02
    -19.867  0.0000E+00  0.6000E-02
    -19.754  0.0000E+00  0.6000E-02
    -19.640  0.1763E-16  0.6000E-02
    -19.527  0.2061E-11  0.6000E-02
    -19.414  0.1941E-07  0.6000E-02
    -19.300  0.1536E-04  0.6002E-02
    -19.187  0.1102E-02  0.6127E-02
    -19.073  0.8237E-02  0.7061E-02
    -18.960  0.7466E-02  0.7907E-02
    -18.847  0.8122E-03  0.7999E-02
    -18.733  0.9064E-05  0.8000E-02
    -18.620  0.9080E-08  0.8000E-02
    -18.507  0.7609E-12  0.8000E-02
    -18.393  0.3917E-17  0.8000E-02
    -18.280  0.0000E+00  0.8000E-02
    -18.166  0.0000E+00  0.8000E-02
    -18.053  0.0000E+00  0.8000E-02
    -17.940  0.0000E+00  0.8000E-02
    -17.826  0.0000E+00  0.8000E-02
    -17.713  0.0000E+00  0.8000E-02
    -17.600  0.0000E+00  0.8000E-02
    -17.486  0.0000E+00  0.8000E-02
    -17.373  0.0000E+00  0.8000E-02
    -17.259  0.0000E+00  0.8000E-02
    -17.146  0.0000E+00  0.8000E-02
    -17.033  0.0000E+00  0.8000E-02
    -16.919  0.0000E+00  0.8000E-02
    -16.806  0.4255E-14  0.8000E-02
    -16.693  0.1619E-09  0.8000E-02
    -16.579  0.5056E-06  0.8000E-02
    -16.466  0.1363E-03  0.8016E-02
    -16.352  0.3515E-02  0.8414E-02
    -16.239  0.1018E-01  0.9568E-02
    -16.126  0.3658E-02  0.9983E-02
    -16.012  0.1481E-03  0.1000E-01
    -15.899  0.5749E-06  0.1000E-01
    -15.786  0.1929E-09  0.1000E-01
    -15.672  0.5317E-14  0.1000E-01
    -15.559  0.0000E+00  0.1000E-01
    -15.445  0.0000E+00  0.1000E-01
    -15.332  0.0000E+00  0.1000E-01
    -15.219  0.0000E+00  0.1000E-01
    -15.105  0.0000E+00  0.1000E-01
    -14.992  0.3134E-16  0.1000E-01
    -14.879  0.3264E-11  0.1000E-01
    -14.765  0.2751E-07  0.1000E-01
    -14.652  0.1953E-04  0.1000E-01
    -14.539  0.1263E-02  0.1015E-01
    -14.425  0.8571E-02  0.1112E-01
    -14.312  0.7082E-02  0.1192E-01
    -14.198  0.6988E-03  0.1200E-01
    -14.085  0.7023E-05  0.1200E-01
    -13.972  0.6308E-08  0.1200E-01
    -13.858  0.4986E-12  0.1200E-01
    -13.745  0.6634E-09  0.1200E-01
    -13.632  0.1411E-05  0.1200E-01
    -13.518  0.2622E-03  0.1203E-01
    -13.405  0.4763E-02  0.1257E-01
    -13.291  0.9963E-02  0.1370E-01
    -13.178  0.2578E-02  0.1399E-01
    -13.065  0.7403E-04  0.1400E-01
    -12.951  0.1775E-03  0.1402E-01
    -12.838  0.3984E-02  0.1447E-01
    -12.725  0.1016E-01  0.1562E-01
    -12.611  0.3210E-02  0.1599E-01
    -12.498  0.1132E-03  0.1600E-01
    -12.384  0.3796E-06  0.1600E-01
    -12.271  0.1096E-09  0.1600E-01
    -12.158  0.2593E-14  0.1600E-01
    -12.044  0.8813E-17  0.1600E-01
    -11.931  0.1216E-11  0.1600E-01
    -11.818  0.1299E-07  0.1600E-01
    -11.704  0.1163E-04  0.1600E-01
    -11.591  0.9391E-03  0.1611E-01
    -11.477  0.7836E-02  0.1700E-01
    -11.364  0.8055E-02  0.1791E-01
    -11.251  0.4860E-02  0.1846E-01
    -11.137  0.1018E-01  0.1961E-01
    -11.024  0.3284E-02  0.1999E-01
    -10.911  0.1188E-03  0.2000E-01
    -10.797  0.7953E-04  0.2001E-01
    -10.684  0.2682E-02  0.2031E-01
    -10.570  0.1001E-01  0.2145E-01
    -10.457  0.4625E-02  0.2197E-01
    -10.344  0.3482E-03  0.2201E-01
    -10.230  0.3061E-02  0.2236E-01
    -10.117  0.1013E-01  0.2351E-01
    -10.004  0.4155E-02  0.2398E-01
     -9.890  0.1941E-03  0.2400E-01
     -9.777  0.5391E-05  0.2400E-01
     -9.663  0.5366E-03  0.2406E-01
     -9.550  0.6418E-02  0.2479E-01
     -9.437  0.9080E-02  0.2582E-01
     -9.323  0.1573E-02  0.2600E-01
     -9.210  0.2915E-04  0.2600E-01
     -9.097  0.6302E-04  0.2601E-01
     -8.983  0.2418E-02  0.2628E-01
     -8.870  0.1161E-01  0.2760E-01
     -8.756  0.1435E-01  0.2922E-01
     -8.643  0.6367E-02  0.2995E-01
     -8.530  0.4670E-03  0.3000E-01
     -8.416  0.3568E-05  0.3000E-01
     -8.303  0.2419E-08  0.3000E-01
     -8.190  0.1362E-12  0.3000E-01
     -8.076  0.0000E+00  0.3000E-01
     -7.963  0.0000E+00  0.3000E-01
     -7.850  0.2607E-14  0.3000E-01
     -7.736  0.1101E-09  0.3000E-01
     -7.623  0.3808E-06  0.3000E-01
     -7.509  0.1134E-03  0.3001E-01
     -7.396  0.3213E-02  0.3038E-01
     -7.283  0.1016E-01  0.3153E-01
     -7.169  0.3980E-02  0.3198E-01
     -7.056  0.1769E-03  0.3200E-01
     -6.943  0.7585E-06  0.3200E-01
     -6.829  0.2979E-08  0.3200E-01
     -6.716  0.3854E-05  0.3200E-01
     -6.602  0.4876E-03  0.3206E-01
     -6.489  0.6183E-02  0.3276E-01
     -6.376  0.9239E-02  0.3380E-01
     -6.262  0.1694E-02  0.3400E-01
     -6.149  0.3319E-04  0.3400E-01
     -6.036  0.5989E-07  0.3400E-01
     -5.922  0.9154E-11  0.3400E-01
     -5.809  0.1136E-15  0.3400E-01
     -5.695  0.0000E+00  0.3400E-01
     -5.582  0.0000E+00  0.3400E-01
     -5.469  0.0000E+00  0.3400E-01
     -5.355  0.0000E+00  0.3400E-01
     -5.242  0.0000E+00  0.3400E-01
     -5.129  0.0000E+00  0.3400E-01
     -5.015  0.0000E+00  0.3400E-01
     -4.902  0.0000E+00  0.3400E-01
     -4.788  0.0000E+00  0.3400E-01
     -4.675  0.0000E+00  0.3400E-01
     -4.562  0.0000E+00  0.3400E-01
     -4.448  0.0000E+00  0.3400E-01
     -4.335  0.0000E+00  0.3400E-01
     -4.222  0.0000E+00  0.3400E-01
     -4.108  0.0000E+00  0.3400E-01
     -3.995  0.0000E+00  0.3400E-01
     -3.881  0.0000E+00  0.3400E-01
     -3.768  0.0000E+00  0.3400E-01
     -3.655  0.0000E+00  0.3400E-01
     -3.541  0.0000E+00  0.3400E-01
     -3.428  0.0000E+00  0.3400E-01
     -3.315  0.0000E+00  0.3400E-01
     -3.201  0.0000E+00  0.3400E-01
     -3.088  0.0000E+00  0.3400E-01
     -2.974  0.0000E+00  0.3400E-01
     -2.861  0.0000E+00  0.3400E-01
     -2.748  0.0000E+00  0.3400E-01
     -2.634  0.0000E+00  0.3400E-01
     -2.521  0.0000E+00  0.3400E-01
     -2.408  0.0000E+00  0.3400E-01
     -2.294  0.0000E+00  0.3400E-01
     -2.181  0.0000E+00  0.3400E-01
     -2.067  0.0000E+00  0.3400E-01
     -1.954  0.0000E+00  0.3400E-01
     -1.841  0.0000E+00  0.3400E-01
     -1.727  0.0000E+00  0.3400E-01
     -1.614  0.0000E+00  0.3400E-01
     -1.501  0.0000E+00  0.3400E-01
     -1.387  0.0000E+00  0.3400E-01
     -1.274  0.0000E+00  0.3400E-01
     -1.161  0.3224E-13  0.3400E-01
     -1.047  0.7905E-09  0.3400E-01
     -0.934  0.1601E-05  0.3400E-01
     -0.820  0.2838E-03  0.3403E-01
     -0.707  0.4932E-02  0.3459E-01
     -0.594  0.9900E-02  0.3571E-01
     -0.480  0.2457E-02  0.3599E-01
     -0.367  0.6962E-04  0.3600E-01
     -0.254  0.4100E-03  0.3605E-01
     -0.140  0.5765E-02  0.3670E-01
     -0.027  0.9502E-02  0.3778E-01
      0.087  0.2592E-02  0.3807E-01
      0.200  0.8122E-02  0.3899E-01
      0.313  0.1741E-01  0.4097E-01
      0.427  0.1442E-01  0.4260E-01
      0.540  0.2301E-01  0.4521E-01
      0.653  0.2538E-01  0.4809E-01
      0.767  0.2863E-01  0.5133E-01
      0.880  0.4963E-01  0.5696E-01
      0.994  0.6558E-01  0.6439E-01
      1.107  0.4633E-01  0.6965E-01
      1.220  0.2453E-01  0.7243E-01
      1.334  0.3829E-01  0.7677E-01
      1.447  0.5119E-01  0.8257E-01
      1.560  0.8574E-01  0.9229E-01
      1.674  0.1013E+00  0.1038E+00
      1.787  0.4978E-01  0.1094E+00
      1.901  0.9987E-02  0.1106E+00
      2.014  0.1006E-01  0.1117E+00
      2.127  0.2636E-02  0.1120E+00
      2.241  0.7653E-04  0.1120E+00
      2.354  0.2089E-06  0.1120E+00
      2.467  0.4880E-10  0.1120E+00
      2.581  0.9323E-15  0.1120E+00
      2.694  0.0000E+00  0.1120E+00
      2.808  0.0000E+00  0.1120E+00
      2.921  0.0000E+00  0.1120E+00
      3.034  0.0000E+00  0.1120E+00
      3.148  0.0000E+00  0.1120E+00
      3.261  0.0000E+00  0.1120E+00
      3.374  0.0000E+00  0.1120E+00
      3.488  0.0000E+00  0.1120E+00
